
Gurobi 10.0.1 (linux64) logging started Tue 18 Jul 2023 04:21:48 AM CDT

Set parameter LogFile to value "/home/dlcole3/graph_abstraction/plasmoexamples/SHP_serial/SHP_reserve_requirements/gurobi_logs/logfile31.log"
Set parameter NodefileStart to value 0.0005
Set parameter TimeLimit to value 36000
Gurobi Optimizer version 10.0.1 build v10.0.1rc0 (linux64)

CPU model: Intel(R) Xeon(R) CPU E5-2698 v4 @ 2.20GHz, instruction set [SSE2|AVX|AVX2]
Thread count: 40 physical cores, 80 logical processors, using up to 8 threads


Warning: excessive time spent in model updates.
Consider calling update less frequently.

Optimize a model with 1103654 rows, 641709 columns and 4636589 nonzeros
Model fingerprint: 0x0ac2b81a
Variable types: 599982 continuous, 41727 integer (41727 binary)
Coefficient statistics:
  Matrix range     [5e-02, 2e+04]
  Objective range  [2e-01, 8e+04]
  Bounds range     [5e-02, 2e+04]
  RHS range        [2e-21, 7e+03]
Presolve removed 268438 rows and 115878 columns (presolve time = 5s) ...
Presolve removed 276065 rows and 116698 columns (presolve time = 10s) ...
Presolve removed 278030 rows and 119721 columns (presolve time = 15s) ...
Presolve removed 290570 rows and 124363 columns (presolve time = 20s) ...
Presolve removed 291350 rows and 125173 columns (presolve time = 25s) ...
Presolve removed 291390 rows and 125223 columns (presolve time = 30s) ...
Presolve removed 291390 rows and 125223 columns (presolve time = 35s) ...
Presolve removed 291690 rows and 125243 columns (presolve time = 40s) ...
Sparsify removed 202616 nonzeros (5%)
Presolve removed 291690 rows and 123601 columns
Presolve time: 41.98s
Presolved: 811964 rows, 518108 columns, 3971401 nonzeros
Variable types: 484415 continuous, 33693 integer (33629 binary)

Deterministic concurrent LP optimizer: primal simplex, dual simplex, and barrier
Showing barrier log only...

Root barrier log...

Elapsed ordering time = 5s
Elapsed ordering time = 18s
Elapsed ordering time = 21s
Elapsed ordering time = 25s
Elapsed ordering time = 31s
Elapsed ordering time = 35s
Elapsed ordering time = 40s
Elapsed ordering time = 45s
Elapsed ordering time = 50s
Elapsed ordering time = 55s
Elapsed ordering time = 57s
Elapsed ordering time = 60s
Elapsed ordering time = 65s
Elapsed ordering time = 70s
Ordering time: 70.41s

Barrier statistics:
 Dense cols : 208
 AA' NZ     : 2.390e+07
 Factor NZ  : 3.638e+08 (roughly 3.5 GB of memory)
 Factor Ops : 1.703e+12 (roughly 15 seconds per iteration)
 Threads    : 5

                  Objective                Residual
Iter       Primal          Dual         Primal    Dual     Compl     Time
   0  -2.19779939e+11 -1.80394539e+13  1.23e+04 8.83e+03  1.15e+08   138s
   1  -1.86398907e+11 -1.68369392e+13  1.08e+04 1.39e+07  9.96e+07   152s
   2  -1.38147525e+11 -1.50482994e+13  8.08e+03 7.41e+06  7.50e+07   166s
   3  -1.05904217e+11 -9.93750904e+12  6.30e+03 1.50e+06  5.02e+07   181s
   4  -2.50403489e+10 -5.14424599e+12  1.70e+03 3.95e+00  1.44e+07   196s
   5  -6.18190675e+09 -1.91829560e+12  6.49e+02 3.78e+00  4.98e+06   212s
   6   3.82576839e+09 -8.42070887e+11  1.17e+02 3.53e-01  1.09e+06   228s
   7   5.22398715e+09 -3.22564593e+11  4.50e+01 2.09e-01  3.46e+05   245s
   8   4.96254078e+09 -1.17467107e+11  1.16e+01 6.63e-02  9.75e+04   262s
   9   3.26806148e+09 -4.18825779e+10  3.92e+00 1.58e-02  3.13e+04   277s
  10   1.08759240e+09 -1.09262271e+10  1.22e+00 1.12e-02  7.72e+03   295s
  11   2.45537694e+08 -2.37213116e+09  1.91e-01 3.62e-03  1.57e+03   312s
  12   8.33752969e+07 -3.52717927e+08  1.72e-03 8.18e-04  2.54e+02   328s
  13   6.92926635e+07 -9.79902366e+07  2.66e-04 3.56e-04  9.75e+01   344s
  14   5.63417079e+07  9.05474191e+06  3.05e-05 1.59e-04  2.76e+01   365s
  15   5.28386242e+07  2.21983396e+07  1.57e-05 7.30e-05  1.79e+01   381s
  16   4.98913860e+07  3.57218765e+07  8.28e-06 9.47e-06  8.26e+00   398s
  17   4.81208984e+07  3.96247198e+07  4.53e-06 5.81e-06  4.95e+00   416s
  18   4.72335708e+07  4.28162059e+07  3.02e-06 8.49e-06  2.57e+00   432s
  19   4.67820495e+07  4.39044948e+07  2.30e-06 2.96e-06  1.68e+00   449s
  20   4.62597177e+07  4.43321645e+07  1.49e-06 1.91e-06  1.12e+00   465s
  21   4.57584084e+07  4.46768582e+07  6.77e-07 1.78e-06  6.30e-01   482s
  22   4.55415393e+07  4.49964693e+07  3.56e-07 8.32e-07  3.18e-01   500s
  23   4.54341623e+07  4.51701561e+07  2.49e-07 3.25e-07  1.54e-01   516s
  24   4.53591776e+07  4.52277302e+07  1.53e-07 1.34e-07  7.66e-02   533s
  25   4.53433574e+07  4.52507764e+07  1.27e-07 6.30e-08  5.39e-02   555s
  26   4.53159345e+07  4.52566423e+07  1.98e-07 4.46e-08  3.45e-02   576s
  27   4.52995186e+07  4.52639981e+07  1.08e-07 2.29e-08  2.07e-02   598s
  28   4.52893388e+07  4.52686489e+07  1.67e-07 1.26e-08  1.21e-02   617s
  29   4.52851517e+07  4.52702128e+07  1.66e-07 8.15e-09  8.71e-03   635s
  30   4.52789128e+07  4.52711399e+07  1.21e-07 9.48e-09  4.53e-03   652s
  31   4.52768818e+07  4.52713595e+07  8.60e-08 1.82e-08  3.22e-03   670s
  32   4.52753209e+07  4.52717391e+07  5.74e-08 6.08e-09  2.09e-03   688s
  33   4.52736944e+07  4.52722395e+07  2.61e-08 1.57e-08  8.48e-04   708s
  34   4.52732058e+07  4.52724004e+07  3.20e-08 2.48e-08  4.69e-04   731s
  35   4.52728435e+07  4.52724522e+07  3.42e-08 7.53e-09  2.28e-04   756s
  36   4.52726712e+07  4.52724594e+07  2.89e-08 8.48e-09  1.23e-04   776s
  37   4.52725746e+07  4.52724609e+07  3.26e-08 9.49e-08  6.63e-05   794s
  38   4.52725229e+07  4.52724652e+07  2.36e-08 7.16e-08  3.36e-05   812s

Barrier solved model in 38 iterations and 812.41 seconds (738.67 work units)
Optimal objective 4.52725229e+07


Root crossover log...

  328356 DPushes remaining with DInf 1.5411591e-02               814s
  142318 DPushes remaining with DInf 4.1064752e+03               817s
  101024 DPushes remaining with DInf 0.0000000e+00               823s
   90025 DPushes remaining with DInf 0.0000000e+00               826s
   73957 DPushes remaining with DInf 0.0000000e+00               831s
   62107 DPushes remaining with DInf 0.0000000e+00               836s
   50220 DPushes remaining with DInf 0.0000000e+00               842s
   44053 DPushes remaining with DInf 0.0000000e+00               847s
   38763 DPushes remaining with DInf 0.0000000e+00               850s
   30786 DPushes remaining with DInf 0.0000000e+00               856s
   25234 DPushes remaining with DInf 0.0000000e+00               861s
   22646 DPushes remaining with DInf 0.0000000e+00               865s
   19979 DPushes remaining with DInf 0.0000000e+00               870s
   17328 DPushes remaining with DInf 0.0000000e+00               876s
   15081 DPushes remaining with DInf 0.0000000e+00               881s
   11682 DPushes remaining with DInf 0.0000000e+00               886s
    9028 DPushes remaining with DInf 0.0000000e+00               890s
    7129 DPushes remaining with DInf 0.0000000e+00               895s
    6215 DPushes remaining with DInf 0.0000000e+00               901s
    4842 DPushes remaining with DInf 0.0000000e+00               907s
    3856 DPushes remaining with DInf 0.0000000e+00               910s
    2025 DPushes remaining with DInf 0.0000000e+00               916s
     626 DPushes remaining with DInf 0.0000000e+00               921s
       0 DPushes remaining with DInf 0.0000000e+00               924s

  263504 PPushes remaining with PInf 7.6745437e-02               924s
   40505 PPushes remaining with PInf 3.6339768e-01               933s
   27817 PPushes remaining with PInf 3.4181084e-01               935s
   14156 PPushes remaining with PInf 2.9298714e-01               940s
    8307 PPushes remaining with PInf 2.1004479e-01               947s
    4926 PPushes remaining with PInf 2.0974560e-01               951s
       0 PPushes remaining with PInf 2.2292586e-03               958s

  Push phase complete: Pinf 2.2292586e-03, Dinf 8.8359468e+06    958s


Root simplex log...

Iteration    Objective       Primal Inf.    Dual Inf.      Time
  409244    4.5272471e+07   0.000000e+00   8.835947e+06    959s
  409701    4.5272471e+07   0.000000e+00   6.666318e+03    961s
  410573    4.5272470e+07   0.000000e+00   0.000000e+00    965s
  410573    4.5272470e+07   0.000000e+00   0.000000e+00    967s
Waiting for other threads to finish...        1034s
Waiting for other threads to finish...        1153s
Concurrent spin time: 214.12s (can be avoided by choosing Method=3)

Solved with barrier

Root relaxation: objective 4.527247e+07, 410573 iterations, 1134.46 seconds (909.80 work units)
Total elapsed time = 1192.07s
Total elapsed time = 1196.90s

    Nodes    |    Current Node    |     Objective Bounds      |     Work
 Expl Unexpl |  Obj  Depth IntInf | Incumbent    BestBd   Gap | It/Node Time

     0     0 4.5272e+07    0  210          - 4.5272e+07      -     - 1204s
     0     0 4.5272e+07    0  210          - 4.5272e+07      -     - 1206s
     0     0 4.5275e+07    0  135          - 4.5275e+07      -     - 1297s
     0     0 4.5275e+07    0  143          - 4.5275e+07      -     - 1330s
     0     0 4.5276e+07    0  109          - 4.5276e+07      -     - 1354s
     0     0 4.5276e+07    0  119          - 4.5276e+07      -     - 1385s
     0     0 4.5276e+07    0  125          - 4.5276e+07      -     - 1390s
     0     0 4.5276e+07    0  120          - 4.5276e+07      -     - 1393s
     0     0 4.5276e+07    0   98          - 4.5276e+07      -     - 1423s
H    0     0                    4.845437e+07 4.5276e+07  6.56%     - 1436s

Cutting planes:
  Gomory: 13
  Implied bound: 67
  MIR: 19
  Flow cover: 175
  RLT: 6

Explored 1 nodes (416932 simplex iterations) in 1437.05 seconds (1223.89 work units)
Thread count was 8 (of 80 available processors)

Solution count 2: 4.84544e+07 4.84544e+07 

Optimal solution found (tolerance 1.00e-01)
Best objective 4.845437009877e+07, best bound 4.527567246985e+07, gap 6.5602%

User-callback calls 265138, time in user-callback 1.21 sec
